10 45
1 2 9
1 3 9
1 4 9
1 5 0
1 6 20
1 7 6
1 8 3
1 9 27
1 10 16
2 3 4
2 4 27
2 5 11
2 6 13
2 7 13
2 8 12
2 9 12
2 10 24
3 4 17
3 5 20
3 6 25
3 7 0
3 8 14
3 9 4
3 10 20
4 5 20
4 6 27
4 7 13
4 8 25
4 9 6
4 10 5
5 6 12
5 7 23
5 8 8
5 9 8
5 10 8
6 7 13
6 8 23
6 9 17
6 10 10
7 8 9
7 9 23
7 10 13
8 9 22
8 10 13
9 10 9
